nohup: ignoring input
Max time = 2000.0
Tried aggregator 1 time.
MIP Presolve eliminated 2205 rows and 0 columns.
MIP Presolve modified 114 coefficients.
Reduced MIP has 1204 rows, 7674 columns, and 43194 nonzeros.
Reduced MIP has 7674 binaries, 0 generals, 0 SOSs, and 0 indicators.
Presolve time = 0.19 sec. (31.54 ticks)
Tried aggregator 1 time.
Reduced MIP has 1204 rows, 7674 columns, and 43194 nonzeros.
Reduced MIP has 7674 binaries, 0 generals, 0 SOSs, and 0 indicators.
Presolve time = 0.08 sec. (18.50 ticks)
Probing time = 0.15 sec. (4.33 ticks)
Clique table members: 8984.
MIP emphasis: balance optimality and feasibility.
MIP search method: dynamic search.
Parallel mode: deterministic, using up to 4 threads.
Root relaxation solution time = 1.30 sec. (313.38 ticks)

        Nodes                                         Cuts/
   Node  Left     Objective  IInf  Best Integer    Best Bound    ItCnt     Gap

      0     0       16.0000  1094                     16.0000        0         
*     0+    0                           32.0000       16.0000            50.00%
      0     2       16.0000   850       32.0000       16.0000     4268   50.00%
Elapsed time = 44.07 sec. (9605.37 ticks, tree = 0.01 MB, solutions = 1)
      1     3       16.0000   766       32.0000       16.0000     9663   50.00%
      2     3       16.0000   760       32.0000       16.0000     9397   50.00%
      3     4       16.0000   818       32.0000       16.0000    13339   50.00%
      8     5       16.0000   742       32.0000       16.0000    18656   50.00%
     11     8       16.0000   779       32.0000       16.0000    26100   50.00%
     15    10       16.0000   789       32.0000       16.0000    30187   50.00%
     21    17       16.0000   927       32.0000       16.0000    43713   50.00%
     24    16       16.0000   850       32.0000       16.0000    42881   50.00%
     28    19       16.0000   897       32.0000       16.0000    45819   50.00%
     33    35       16.0000   839       32.0000       16.0000    63292   50.00%
Elapsed time = 75.91 sec. (15924.39 ticks, tree = 0.13 MB, solutions = 1)
     39    36       16.0000   679       32.0000       16.0000    71675   50.00%
     46    38       16.0000   838       32.0000       16.0000    72397   50.00%
     62    50       16.0000   648       32.0000       16.0000    91809   50.00%
     91    60       16.0000   436       32.0000       16.0000   110725   50.00%
    115    81       18.0000   457       32.0000       16.0000   132471   50.00%
    136    92    infeasible             32.0000       16.0000   165285   50.00%
    169    95       18.0000   498       32.0000       16.0000   179553   50.00%
    194   101       19.3750   389       32.0000       16.0000   213020   50.00%
    229   127       16.0000   521       32.0000       16.0000   236416   50.00%
    268   143    infeasible             32.0000       16.0000   309096   50.00%
Elapsed time = 137.67 sec. (26688.00 ticks, tree = 0.57 MB, solutions = 1)
    300   138       16.0000   707       32.0000       16.0000   294495   50.00%
    336   179       18.0000   502       32.0000       16.0000   373640   50.00%
    380   156    infeasible             32.0000       16.0000   351292   50.00%
    424   187       18.0000   415       32.0000       16.0000   394878   50.00%
    466   201    infeasible             32.0000       16.0000   417736   50.00%
    513   236       18.0000   404       32.0000       16.0000   483065   50.00%
*   559+  236                           18.0000       16.0000            11.11%
    579   252       18.0000   409       18.0000       16.0000   533101   11.11%
    636   221       16.0000   457       18.0000       16.0000   542347   11.11%
    687   238       16.0000   453       18.0000       16.0000   598122   11.11%
    738   243       16.0000   512       18.0000       16.0000   613871   11.11%
Elapsed time = 194.26 sec. (36413.43 ticks, tree = 1.58 MB, solutions = 3)
    777   291       16.0000   565       18.0000       16.0000   666063   11.11%
    823   297       16.0000   391       18.0000       16.0000   673527   11.11%
    853   307    infeasible             18.0000       16.0000   697530   11.11%
    888   326       16.0000   805       18.0000       16.0000   724593   11.11%
    921   357       16.0000   560       18.0000       16.0000   773012   11.11%
    964   372    infeasible             18.0000       16.0000   797068   11.11%
   1053   388    infeasible             18.0000       16.0000   849648   11.11%
   1160   433       16.0000   375       18.0000       16.0000   937600   11.11%
   1336   434    infeasible             18.0000       16.0000   948149   11.11%
   1613   452    infeasible             18.0000       16.0000  1004731   11.11%
Elapsed time = 250.37 sec. (46131.85 ticks, tree = 2.70 MB, solutions = 3)
   1854   458    infeasible             18.0000       16.0000  1002525   11.11%
   1979   479    infeasible             18.0000       16.0000  1087052   11.11%
   2050   454       16.0000   469       18.0000       16.0000  1144537   11.11%
   2099   453    infeasible             18.0000       16.0000  1173985   11.11%
   2157   436       16.0000   496       18.0000       16.0000  1226504   11.11%
   2216   454       16.0000   720       18.0000       16.0000  1268199   11.11%
   2275   446    infeasible             18.0000       16.0000  1313663   11.11%
   2328   449       16.0000   552       18.0000       16.0000  1329420   11.11%
   2378   473       16.0000   804       18.0000       16.0000  1382035   11.11%
   2404   487    infeasible             18.0000       16.0000  1402880   11.11%
Elapsed time = 307.67 sec. (55847.38 ticks, tree = 3.07 MB, solutions = 3)
   2452   511    infeasible             18.0000       16.0000  1420284   11.11%
   2488   545       16.0000   656       18.0000       16.0000  1449732   11.11%
   2538   551       16.6667   608       18.0000       16.0000  1459683   11.11%
   2585   575       16.0000   540       18.0000       16.0000  1528482   11.11%
   2640   592       16.0000   847       18.0000       16.0000  1568618   11.11%
   2694   578    infeasible             18.0000       16.0000  1592276   11.11%
   2734   608       16.0000   395       18.0000       16.0000  1659139   11.11%
   2853   615       16.0000   437       18.0000       16.0000  1705414   11.11%
   2987   700    infeasible             18.0000       16.0000  1733135   11.11%
   3203   723       16.0000   280       18.0000       16.0000  1742706   11.11%
Elapsed time = 364.18 sec. (65499.38 ticks, tree = 4.61 MB, solutions = 3)
   3494   858       16.0000   252       18.0000       16.0000  1825900   11.11%
   3817   778       16.0000   240       18.0000       16.0000  1790908   11.11%
   3924   875       16.0000   661       18.0000       16.0000  1907371   11.11%
   3925   876       16.0000   713       18.0000       16.0000  1911938   11.11%
   3926   877       16.0000   757       18.0000       16.0000  1915303   11.11%
   3929   659       16.0000   571       18.0000       16.0000  1920968   11.11%
   3932   333       16.0000   695       18.0000       16.0000  1923994   11.11%
   3937   168       16.0000   683       18.0000       16.0000  1918831   11.11%
   3941   158       16.0000   869       18.0000       16.0000  1933200   11.11%
   3948    91       16.0000   653       18.0000       16.0000  1940870   11.11%
Elapsed time = 457.87 sec. (83909.42 ticks, tree = 0.60 MB, solutions = 3)
   3957    69       16.0000   733       18.0000       16.0000  1951640   11.11%
   3968    67       16.0000   749       18.0000       16.0000  1962848   11.11%
   3980    61       16.0000   668       18.0000       16.0000  1967724   11.11%
   3996    52       16.2500   654       18.0000       16.0000  1974969   11.11%
   4023    60    infeasible             18.0000       16.0000  1982258   11.11%
   4051    85       16.2500   612       18.0000       16.0000  1994767   11.11%
   4071    88    infeasible             18.0000       16.0000  1995730   11.11%
   4096   108       16.0000   506       18.0000       16.0000  2010397   11.11%
   4123   124       16.0000   469       18.0000       16.0000  2016375   11.11%
   4153   156       17.0000   601       18.0000       16.0000  2026894   11.11%
Elapsed time = 520.93 sec. (93945.96 ticks, tree = 0.24 MB, solutions = 3)
   4177   154       16.0000   576       18.0000       16.0000  2026923   11.11%
   4204   165       16.0000   668       18.0000       16.0000  2033497   11.11%
   4241   200       16.4000   553       18.0000       16.0000  2047691   11.11%
   4276   227    infeasible             18.0000       16.0000  2076903   11.11%
   4317   222       16.0000   725       18.0000       16.0000  2074585   11.11%
   4361   250       16.0000   596       18.0000       16.0000  2096482   11.11%
   4410   260    infeasible             18.0000       16.0000  2121064   11.11%
   4487   261       16.0000   670       18.0000       16.0000  2113187   11.11%
   4544   278       16.0000   904       18.0000       16.0000  2142897   11.11%
   4597   346       16.0000   593       18.0000       16.0000  2188530   11.11%
Elapsed time = 581.60 sec. (103620.81 ticks, tree = 0.72 MB, solutions = 3)
   4667   395       16.0000   690       18.0000       16.0000  2246633   11.11%
   4718   417       16.0000   515       18.0000       16.0000  2256118   11.11%
   4775   398       16.0000   658       18.0000       16.0000  2249281   11.11%
   4861   436       16.0000   461       18.0000       16.0000  2286968   11.11%
   4926   496       16.0000   397       18.0000       16.0000  2361537   11.11%
   4976   495    infeasible             18.0000       16.0000  2374798   11.11%
   5016   522       16.0000   330       18.0000       16.0000  2424701   11.11%
   5048   531       16.2353   525       18.0000       16.0000  2430268   11.11%
   5088   542    infeasible             18.0000       16.0000  2494021   11.11%
   5251   588       16.0000   616       18.0000       16.0000  2552700   11.11%
Elapsed time = 654.92 sec. (116125.15 ticks, tree = 1.51 MB, solutions = 3)
   5441   715       16.0000   680       18.0000       16.0000  2662952   11.11%
   5664   817       16.0000   691       18.0000       16.0000  2710374   11.11%
   5766   865       16.0000   830       18.0000       16.0000  2759600   11.11%
   5973   948       16.4444   414       18.0000       16.0000  2808726   11.11%
   6239  1019       16.0000   402       18.0000       16.0000  2958997   11.11%
   6599  1113    infeasible             18.0000       16.0000  3034596   11.11%
   6860  1218       16.0000   474       18.0000       16.0000  3209490   11.11%
   7084  1242    infeasible             18.0000       16.0000  3301535   11.11%
   7363  1293       16.4000   496       18.0000       16.0000  3431612   11.11%
   7607  1311       16.0000   385       18.0000       16.0000  3596754   11.11%
Elapsed time = 879.61 sec. (155083.83 ticks, tree = 3.58 MB, solutions = 3)
   7806  1300       16.0000   420       18.0000       16.0000  3679322   11.11%
   8079  1306       16.0000   452       18.0000       16.0000  3814150   11.11%
   8337  1336       16.0000   401       18.0000       16.0000  4013005   11.11%
   8616  1325    infeasible             18.0000       16.0000  4130644   11.11%
   8853  1322       16.0000   412       18.0000       16.0000  4279934   11.11%
   9134  1309    infeasible             18.0000       16.0000  4355980   11.11%
   9445  1303    infeasible             18.0000       16.0000  4492856   11.11%
   9786  1305       16.0000   456       18.0000       16.0000  4646071   11.11%
  10153  1311       16.0000   407       18.0000       16.0000  4773353   11.11%
  10594  1324    infeasible             18.0000       16.0000  4857136   11.11%
Elapsed time = 1094.25 sec. (193349.32 ticks, tree = 3.68 MB, solutions = 3)
  11013  1336       16.0000   335       18.0000       16.0000  5071066   11.11%
  11334  1319       16.0000   414       18.0000       16.0000  5228664   11.11%
  11590  1315       16.0000   407       18.0000       16.0000  5343073   11.11%
  11890  1365    infeasible             18.0000       16.0000  5420627   11.11%
  12144  1362    infeasible             18.0000       16.0000  5499908   11.11%
  12461  1405       16.0000   354       18.0000       16.0000  5606809   11.11%
  12958  1430       16.0000   325       18.0000       16.0000  5732413   11.11%
  13484  1479    infeasible             18.0000       16.0000  5880263   11.11%
  13935  1466    infeasible             18.0000       16.0000  6038442   11.11%
  14301  1450    infeasible             18.0000       16.0000  6215092   11.11%
Elapsed time = 1303.34 sec. (231626.41 ticks, tree = 4.57 MB, solutions = 3)
  14672  1457    infeasible             18.0000       16.0000  6370801   11.11%
  14887  1430    infeasible             18.0000       16.0000  6456473   11.11%
  15246  1431    infeasible             18.0000       16.0000  6531636   11.11%
  15644  1396    infeasible             18.0000       16.0000  6690911   11.11%
  16089  1366       16.0000   364       18.0000       16.0000  6834191   11.11%
  16477  1359       16.0000   438       18.0000       16.0000  7072616   11.11%
  16713  1353       16.0000   496       18.0000       16.0000  7116423   11.11%
  16837  1350       16.0000   421       18.0000       16.0000  7222190   11.11%
  17077  1335       16.0000   418       18.0000       16.0000  7325031   11.11%
  17224  1333    infeasible             18.0000       16.0000  7388500   11.11%
Elapsed time = 1512.57 sec. (269952.82 ticks, tree = 4.06 MB, solutions = 3)
  17331  1388       16.0000   577       18.0000       16.0000  7429064   11.11%
  17502  1415    infeasible             18.0000       16.0000  7592630   11.11%
  17692  1525       16.0000   342       18.0000       16.0000  7683608   11.11%
  17931  1537       16.0000   308       18.0000       16.0000  7729408   11.11%
  18213  1700       16.0000   277       18.0000       16.0000  7855472   11.11%
  18564  1806    infeasible             18.0000       16.0000  7978437   11.11%
  19011  1861    infeasible             18.0000       16.0000  8208454   11.11%
  19517  1923    infeasible             18.0000       16.0000  8478760   11.11%
  19951  1921       16.0000   283       18.0000       16.0000  8582159   11.11%
  20290  1949    infeasible             18.0000       16.0000  8723390   11.11%
Elapsed time = 1726.75 sec. (308214.18 ticks, tree = 9.65 MB, solutions = 3)
  20690  1950    infeasible             18.0000       16.0000  8775733   11.11%
  21279  1978       16.0000   250       18.0000       16.0000  9080698   11.11%
  21842  1977       16.0000   225       18.0000       16.0000  9227080   11.11%
  22392  1983       16.0000   256       18.0000       16.0000  9371819   11.11%
  22821  1990    infeasible             18.0000       16.0000  9458290   11.11%
  23066  1955    infeasible             18.0000       16.0000  9655032   11.11%
  23334  1907    infeasible             18.0000       16.0000  9817223   11.11%
  23501  1883       16.0000   305       18.0000       16.0000  9941226   11.11%
  23652  1840    infeasible             18.0000       16.0000 10214596   11.11%
  23770  1840    infeasible             18.0000       16.0000 10368149   11.11%
Elapsed time = 1931.77 sec. (346553.50 ticks, tree = 8.41 MB, solutions = 3)
  23897  1845    infeasible             18.0000       16.0000 10586527   11.11%
  24041  1868    infeasible             18.0000       16.0000 10571703   11.11%
  24163  1914    infeasible             18.0000       16.0000 10836680   11.11%

Cover cuts applied:  3

Root node processing (before b&c):
  Real time             =   43.67 sec. (9536.66 ticks)
Parallel b&c, 4 threads:
  Real time             = 1956.34 sec. (349843.62 ticks)
  Sync time (average)   =  134.58 sec.
  Wait time (average)   =    0.02 sec.
                          ------------
Total (root+branch&cut) = 2000.02 sec. (359380.27 ticks)
P#8 = 1.0
P#15 = 1.0
P#19 = 1.0
P#26 = 1.0
P#28 = 1.0
P#32 = 1.0
P#44 = 1.0
P#57 = 1.0
P#58 = 1.0
P#71 = 1.0
P#83 = 1.0
P#87 = 1.0
P#89 = 1.0
P#96 = 1.0
P#100 = 1.0
P#107 = 1.0
P#86 = 1.0
P#29 = 1.0
X#1#86 = 1.0
X#2#58 = 1.0
X#3#83 = 1.0
X#4#89 = 1.0
X#5#87 = 1.0
X#6#96 = 1.0
X#7#107 = 1.0
X#8#8 = 1.0
X#9#100 = 1.0
X#10#71 = 1.0
X#11#29 = 1.0
X#12#32 = 1.0
X#13#28 = 1.0
X#14#19 = 1.0
X#15#26 = 1.0
X#16#57 = 1.0
X#17#44 = 1.0
X#18#15 = 1.0
L#1#1 = 1.0
L#1#3 = 1.0
L#1#5 = 1.0
L#1#7 = 1.0
L#1#9 = 1.0
L#1#11 = 1.0
L#1#13 = 1.0
L#1#15 = 1.0
L#1#17 = 1.0
L#2#1 = 1.0
L#2#4 = 1.0
L#2#6 = 1.0
L#2#8 = 1.0
L#2#10 = 1.0
L#2#12 = 1.0
L#2#14 = 1.0
L#2#16 = 1.0
L#3#1 = 1.0
L#3#3 = 1.0
L#3#5 = 1.0
L#3#7 = 1.0
L#3#9 = 1.0
L#3#11 = 1.0
L#3#14 = 1.0
L#3#16 = 1.0
L#4#1 = 1.0
L#4#3 = 1.0
L#4#5 = 1.0
L#4#7 = 1.0
L#4#9 = 1.0
L#4#11 = 1.0
L#4#13 = 1.0
L#4#14 = 1.0
L#4#16 = 1.0
L#5#1 = 1.0
L#5#3 = 1.0
L#5#5 = 1.0
L#5#7 = 1.0
L#5#9 = 1.0
L#5#11 = 1.0
L#5#13 = 1.0
L#5#15 = 1.0
L#5#16 = 1.0
L#6#1 = 1.0
L#6#3 = 1.0
L#6#5 = 1.0
L#6#7 = 1.0
L#6#9 = 1.0
L#6#10 = 1.0
L#6#12 = 1.0
L#6#14 = 1.0
L#6#16 = 1.0
L#7#1 = 1.0
L#7#3 = 1.0
L#7#5 = 1.0
L#7#6 = 1.0
L#7#8 = 1.0
L#7#10 = 1.0
L#7#12 = 1.0
L#7#14 = 1.0
L#7#16 = 1.0
L#8#2 = 1.0
L#8#4 = 1.0
L#8#7 = 1.0
L#8#9 = 1.0
L#8#11 = 1.0
L#8#13 = 1.0
L#8#15 = 1.0
L#8#17 = 1.0
L#9#1 = 1.0
L#9#3 = 1.0
L#9#5 = 1.0
L#9#7 = 1.0
L#9#8 = 1.0
L#9#10 = 1.0
L#9#12 = 1.0
L#9#14 = 1.0
L#9#17 = 1.0
L#10#1 = 1.0
L#10#3 = 1.0
L#10#5 = 1.0
L#10#8 = 1.0
L#10#10 = 1.0
L#10#12 = 1.0
L#10#14 = 1.0
L#10#16 = 1.0
L#11#2 = 1.0
L#11#4 = 1.0
L#11#6 = 1.0
L#11#8 = 1.0
L#11#10 = 1.0
L#11#12 = 1.0
L#11#14 = 1.0
L#11#16 = 1.0
L#12#2 = 1.0
L#12#4 = 1.0
L#12#6 = 1.0
L#12#8 = 1.0
L#12#10 = 1.0
L#12#12 = 1.0
L#12#13 = 1.0
L#12#15 = 1.0
L#12#17 = 1.0
L#13#2 = 1.0
L#13#4 = 1.0
L#13#6 = 1.0
L#13#8 = 1.0
L#13#10 = 1.0
L#13#12 = 1.0
L#13#14 = 1.0
L#13#17 = 1.0
L#14#2 = 1.0
L#14#4 = 1.0
L#14#6 = 1.0
L#14#8 = 1.0
L#14#11 = 1.0
L#14#13 = 1.0
L#14#15 = 1.0
L#14#17 = 1.0
L#15#2 = 1.0
L#15#4 = 1.0
L#15#6 = 1.0
L#15#8 = 1.0
L#15#10 = 1.0
L#15#12 = 1.0
L#15#15 = 1.0
L#15#17 = 1.0
L#16#2 = 1.0
L#16#3 = 1.0
L#16#5 = 1.0
L#16#7 = 1.0
L#16#9 = 1.0
L#16#11 = 1.0
L#16#13 = 1.0
L#16#15 = 1.0
L#16#17 = 1.0
L#17#2 = 1.0
L#17#4 = 1.0
L#17#6 = 1.0
L#17#7 = 1.0
L#17#9 = 1.0
L#17#11 = 1.0
L#17#13 = 1.0
L#17#15 = 1.0
L#17#17 = 1.0
L#18#2 = 1.0
L#18#4 = 1.0
L#18#6 = 1.0
L#18#9 = 1.0
L#18#11 = 1.0
L#18#13 = 1.0
L#18#15 = 1.000000000000003
L#18#16 = 1.0
F#1#18#1 = 1.0
F#1#14#3 = 1.0
F#1#17#5 = 1.0
F#1#12#7 = 1.0
F#1#11#9 = 1.0
F#1#10#11 = 1.0
F#1#6#13 = 1.0
F#1#9#15 = 1.0
F#1#5#17 = 1.0
F#2#17#1 = 1.0
F#2#10#4 = 1.0
F#2#9#6 = 1.0
F#2#3#8 = 1.0
F#2#1#10 = 1.0
F#2#8#12 = 1.0
F#2#12#14 = 1.0
F#2#15#16 = 1.0
F#3#16#1 = 1.0
F#3#18#3 = 1.0
F#3#8#5 = 1.0
F#3#10#7 = 1.0
F#3#9#9 = 1.0
F#3#7#11 = 1.0
F#3#1#14 = 1.0
F#3#14#16 = 1.0
F#4#15#1 = 1.0
F#4#13#3 = 1.0
F#4#12#5 = 1.0
F#4#11#7 = 1.0
F#4#7#9 = 1.0
F#4#2#11 = 1.0
F#4#3#13 = 1.0
F#4#5#14 = 1.0
F#4#1#16 = 1.0
F#5#14#1 = 1.0
F#5#17#3 = 1.0
F#5#15#5 = 1.0
F#5#2#7 = 1.0
F#5#12#9 = 1.0
F#5#6#11 = 1.0
F#5#10#13 = 1.0
F#5#3#15 = 1.0
F#5#16#16 = 1.0
F#6#13#1 = 1.0
F#6#15#3 = 1.0
F#6#2#5 = 1.0
F#6#7#7 = 0.9999999999999989
F#6#10#9 = 1.0
F#6#4#10 = 1.0
F#6#3#12 = 1.0
F#6#18#14 = 1.0
F#6#17#16 = 1.0
F#7#8#1 = 1.0
F#7#2#3 = 1.0
F#7#11#5 = 1.0
F#7#10#6 = 1.0
F#7#5#8 = 1.0
F#7#16#10 = 1.0
F#7#1#12 = 1.0
F#7#17#14 = 1.0
F#7#12#16 = 1.0
F#8#5#2 = 1.0
F#8#1#4 = 1.0
F#8#14#7 = 1.0
F#8#15#9 = 1.0
F#8#12#11 = 1.0
F#8#9#13 = 1.0
F#8#6#15 = 1.0
F#8#4#17 = 1.0
F#9#12#1 = 1.0
F#9#11#3 = 1.0
F#9#14#5 = 0.9999999999999989
F#9#13#7 = 1.0
F#9#6#8 = 0.9999999999999989
F#9#5#10 = 1.0
F#9#4#12 = 1.0
F#9#16#14 = 1.0
F#9#7#17 = 1.0
F#10#11#1 = 1.0
F#10#12#3 = 1.0
F#10#13#5 = 0.9999999999999989
F#10#4#8 = 1.0
F#10#18#10 = 1.0
F#10#16#12 = 1.0
F#10#8#14 = 1.0
F#10#9#16 = 1.000000000000001
F#11#2#2 = 1.0
F#11#6#4 = 1.0
F#11#5#6 = 1.0
F#11#8#8 = 1.0
F#11#3#10 = 1.0
F#11#18#12 = 1.0
F#11#14#14 = 1.0
F#11#13#16 = 1.0
F#12#6#2 = 1.0
F#12#3#4 = 1.0
F#12#16#6 = 1.0
F#12#18#8 = 0.9999999999999956
F#12#17#10 = 1.0
F#12#14#12 = 1.0
F#12#15#13 = 1.0
F#12#13#15 = 1.0
F#12#11#17 = 1.0
F#13#3#2 = 1.0000000000000044
F#13#7#4 = 1.0
F#13#1#6 = 1.0
F#13#17#8 = 1.0
F#13#8#10 = 1.0
F#13#5#12 = 1.0
F#13#15#14 = 1.0
F#13#2#17 = 1.0
F#14#10#2 = 0.9999999999999989
F#14#4#4 = 1.0
F#14#6#6 = 1.0
F#14#16#8 = 1.0
F#14#13#11 = 1.0
F#14#2#13 = 1.000000000000003
F#14#7#15 = 1.000000000000003
F#14#18#17 = 1.0
F#15#7#2 = 1.0
F#15#9#4 = 1.0
F#15#3#6 = 1.0
F#15#1#8 = 1.0
F#15#14#10 = 1.0
F#15#17#12 = 1.0
F#15#11#15 = 1.0
F#15#10#17 = 1.0
F#16#1#2 = 1.0
F#16#8#3 = 1.0
F#16#18#5 = 1.0
F#16#15#7 = 1.0
F#16#2#9 = 1.0
F#16#11#11 = 1.0
F#16#13#13 = 1.0000000000000089
F#16#4#15 = 1.0
F#16#6#17 = 1.0
F#17#4#2 = 1.0
F#17#16#4 = 1.0
F#17#8#6 = 1.0
F#17#18#7 = 1.0
F#17#14#9 = 1.0000000000000009
F#17#9#11 = 1.0
F#17#11#13 = 1.0
F#17#10#15 = 1.0
F#17#3#17 = 1.0
F#18#9#2 = 1.0
F#18#5#4 = 1.0
F#18#4#6 = 1.0
F#18#13#9 = 1.0
F#18#15#11 = 1.0
F#18#7#13 = 1.0
F#18#2#15 = 1.000000000000003
F#18#8#16 = 1.0
